3477140
8,6,54,214,23,189,91,52,177,69,125,187,166,94,83,56,75,9,14,97,73,63,136,143,150,46,16,171,180,135,198,121,41,112,72,124,47,224,110,193,30,15,219,126,202,157,105,140,19,25,106,178,160,179,196,10,28,138,131,79,147,118,163,153,50,159,199,197,64,190,176,130,203,167,92,226,12,217,85,68,225,59,2,7,84,208,18,111,102,188,43,183,78,148,1,100,74,204,42,184,57,192,220,172,113,119,173,109,207,200,137,206,38,139,31,117,162,48,70,134,222,49,93,107,34,86,27,37,62,209,182,133,229,211,195,205,36,22,66,146,71,24,96,29,103,77,129,80,39,168,145,210,155,61,90,21,141,51,212,81,87,67,115,186,228,13,165,88,144,122,142,58,5,3,20,11,128,120,53,174,215,99,104,60,181,123,151,158,44,223,89,216,108,33,191,175,213,164,4,35,82,194,116,45,114,152,32,40,221,17,55,201,76,156,0,95,26,161,154,132,170,185,169,149,218,127,98,65,101,227,8
